dates = {'2022-04-03','2022-04-04','2022-04-05','2022-04-06','2022-04-07','2022-04-08','2022-04-09','2022-04-10','2022-04-11','2022-04-12','2022-04-13','2022-04-14','2022-04-15','2022-04-16','2022-04-17','2022-04-18','2022-04-19','2022-04-20','2022-04-21','2022-04-22'};

6daysOfWeek = [Sunday,Monday,Tuesday,Wednesday,Thursday,Friday,Saturday,Sunday,Monday,Tuesday,Wednesday,Thursday,Friday,Saturday,Sunday,Monday,Tuesday,Wednesday,Thursday,Friday];

% For this week, how many people will be here.
numPeople = [89,89,89,89,89,89,89,89,89,89,89,89,89,89,89,89,89,89,89,89];

% Physical workers need 50 to 100 % more nutrients per day.
numPhysicalWorkers = [21.0,21.0,21.0,21.0,21.0,21.0,21.0,21.0,21.0,21.0,21.0,21.0,21.0,21.0,21.0,21.0,21.0,21.0
,21.0,21.0];

% Males need +25% more nutrients per day.
numMen = [75,75,75,75,75,75,75,75,75,75,75,75,75,75,75,75,75,75,75,75];

% Num people who do not eat categories. contains = {none, meat, milk, gluten, egg, nut, seed, sugars}
numRefusals = [| 0,2,0,0,1,0,2,0 | 0,2,0,0,1,0,2,0 | 0,2,0,0,1,0,2,0 | 0,2,0,0,1,0,2,0 | 0,2,0,0,1,0,2,0 | 0,2,0,0,1,0,2,0 | 0,2,0,0,1,0,2,0 | 0,2,0,0,1,0,2,0 | 0,2,0,0,1,0,2,0 | 0,2,0,0,1,0,2,0 | 0,2,0,0,1,0,2,0 | 0,2,0,0,1,0,2,0 | 0,2,0,0,1,0,2,0 | 0,2,0,0,1,0,2,0 | 0,2,0,0,1,0,2,0 | 0,2,0,0,1,0,2,0 | 0,2,0,0,1,0,2,0 | 0,2,0,0,1,0,2,0 | 0,2,0,0,1,0,2,0 | 0,2,0,0,1,0,2,0 |];

